Version identifier: 22.1.0.0 | 2022-03-09 | 1a383f8ce
CPXPARAM_Threads                                 1
CPXPARAM_MIP_Strategy_VariableSelect             3
CPXPARAM_TimeLimit                               599.99069454699998
Tried aggregator 1 time.
MIP Presolve eliminated 16 rows and 0 columns.
Reduced MIP has 4004 rows, 10000 columns, and 95628 nonzeros.
Reduced MIP has 10000 binaries, 0 generals, 0 SOSs, and 0 indicators.
Presolve time = 0.06 sec. (43.56 ticks)
Probing time = 0.01 sec. (4.54 ticks)
Tried aggregator 1 time.
Detecting symmetries...
Reduced MIP has 4004 rows, 10000 columns, and 95628 nonzeros.
Reduced MIP has 10000 binaries, 0 generals, 0 SOSs, and 0 indicators.
Presolve time = 0.07 sec. (55.44 ticks)
Probing time = 0.01 sec. (4.54 ticks)
Clique table members: 2492.
MIP emphasis: balance optimality and feasibility.
MIP search method: dynamic search.
Parallel mode: none, using 1 thread.
Root relaxation solution time = 2.24 sec. (2069.76 ticks)

        Nodes                                         Cuts/
   Node  Left     Objective  IInf  Best Integer    Best Bound    ItCnt     Gap

      0     0        0.0000  1989                      0.0000     7088         
      0     0        0.0000   332                  Cliques: 1     9998         
      0     0        0.0000    12                    Fract: 2    10413         
      0     0        0.0000     8                    Cuts: 14    10640         
      0     0        0.0000    32                 ZeroHalf: 1    10898         
*     0+    0                            0.0000        0.0000             0.00%
      0     0        cutoff              0.0000        0.0000    10898    0.00%
Elapsed time = 42.42 sec. (43690.92 ticks, tree = 0.01 MB, solutions = 1)

Clique cuts applied:  9
Zero-half cuts applied:  2

Root node processing (before b&c):
  Real time             =   42.42 sec. (43691.57 ticks)
Sequential b&c:
  Real time             =    0.00 sec. (0.00 ticks)
                          ------------
Total (root+branch&cut) =   42.42 sec. (43691.57 ticks)
Primal:	500
Dual:	500
Status:	Optimal
Time:	42.4801
Sequence:
	19
	5
	12
	19
	5
	6
	19
	2
	5
	8
	10
	18
	3
	9
	1
	3
	9
	2
	14
	9
	18
	3
	9
	4
	3
	10
	6
	3
	10
	6
	14
	10
	18
	17
	10
	4
	8
	10
	18
	17
	10
	1
	8
	10
	4
	17
	10
	18
	17
	10
	4
	8
	10
	1
	17
	13
	7
	8
	13
	7
	17
	13
	5
	8
	10
	5
	17
	10
	4
	8
	10
	2
	17
	13
	7
	8
	13
	7
	8
	13
	7
	8
	0
	7
	3
	13
	11
	3
	13
	11
	14
	0
	11
	3
	13
	15
	14
	0
	15
	18
	16
	7
	6
	16
	7
	6
	16
	7
	6
	16
	7
	6
	16
	7
	18
	16
	15
	4
	16
	15
	5
	16
	11
	5
	16
	15
	5
	16
	11
	5
	16
	11
	1
	16
	15
	5
	16
	11
	1
	16
	11
	1
	16
	15
	5
	16
	11
	1
	16
	15
	4
	16
	2
	6
	19
	2
	12
	19
	2
	1
	19
	6
	5
	19
	6
	18
	19
	1
	18
	19
	12
	2
	19
	12
	2
	19
	6
	5
	19
	6
	5
	19
	12
	4
	19
	6
	2
	19
	12
	5
	19
	5
	12
	19
	2
	12
	19
	5
	6
	19
	4
	6
	16
	1
	11
	16
	4
	11
	16
	4
	12
	19
	2
	12
	19
	18
	12
	19
	5
	1
	19
	12
	18
	19
	12
	5
	19
	6
	5
	19
	6
	4
	19
	6
	5
	19
	6
	2
	19
	12
	18
	19
	6
	18
	19
	6
	4
	19
	6
	18
	16
	15
	4
	16
	11
	4
	14
	9
	2
	14
	9
	2
	3
	9
	18
	14
	9
	2
	14
	9
	18
	3
	9
	18
	14
	9
	1
	3
	9
	18
	14
	9
	18
	14
	9
	5
	14
	9
	1
	14
	9
	18
	14
	9
	18
	3
	9
	4
	14
	10
	2
	17
	10
	2
	8
	7
	0
	17
	7
	0
	3
	15
	0
	14
	11
	13
	3
	11
	13
	3
	15
	13
	3
	15
	13
	3
	15
	0
	3
	15
	0
	14
	15
	13
	3
	11
	13
	4
	17
	13
	7
	8
	0
	18
	17
	10
	4
	8
	10
	1
	8
	10
	1
	14
	10
	18
	3
	9
	18
	14
	9
	4
	3
	9
	18
	14
	9
	1
	14
	13
	7
	8
	13
	7
	17
	0
	18
	18
	19
	1
	18
	19
	6
	18
	19
	5
	18
	19
	2
	12
	19
	5
	6
	19
	2
	4
	10
	8
	4
	10
	8
	1
	10
	8
	2
	0
	15
	14
	0
	11
	14
	0
	15
	3
	13
	15
	3
	18
	9
	14
	2
	9
	3
	18
	11
	13
	4
	8
	10
	2
	17
	10
	5
	8
	10
	5
	8
	10
	2
	17
	7
	13
	17
	7
	0
	17
	7
	0
	8
	7
	13
	17
	7
	0
	17
	2
	10
	17
	2
	10
	8
	4
	10
	8
	2
	0
	8
	7
	13
	8
	7
	0
	8
	7
	0
	3
	11
	13
	3
	11
	0
	14
	15
	0
	14
	15
	0
	14
	15
	13
	3
	11
	0
	14
	5
	9
	14
	1
	11
	16
